46
1000
200	4
199	4
198	2
197	3
196	3
195	4
194	1
193	1
192	3
191	1
190	3
189	4
188	3
187	1
186	4
185	1
184	1
183	3
182	3
181	1
180	1
179	4
178	6
177	3
176	4
174	2
173	3
172	4
171	4
170	4
169	2
167	1
166	1
165	1
163	3
162	1
161	2
160	6
159	3
158	2
157	3
156	1
155	2
154	3
151	2
150	2
